Traveling Salesman Problem/TSP_generados/Aleatorio1621103411_14.tsp
NAME: Aleatorio1621103411_14.tsp
COMMENT: Randomly generated scenario
TYPE: TSP
DIMENSION: 14
EDGE_WEIGHT_TYPE: ATT
NODE_COORD_SECTION
1 49.11 42.21
2 5.28 48.55
3 22.67 1.61
4 46.66 1.15
5 7.7 42.6
6 13.76 8.83
7 20.56 3.0
8 25.08 11.51
9 11.55 36.94
10 31.56 2.33
11 22.07 23.9
12 25.61 21.95
13 22.02 15.38
14 17.69 16.9
