Traveling Salesman Problem/TSP_generados/Aleatorio1621103411_14.opt.tour
NAME: Aleatorio1621103411_14.opt.tour
COMMENT: Optimal solution for Aleatorio1621103411_14 (183.984874630616)
TYPE: TOUR
DIMENSION: 14
TOUR_SECTION
1 2 5 9 11 12 8 13 14 6 7 3 10 4
-1
EOF
